7839
49, 36, 35, 34, 44, 50, 20, 23, 21, 17, 7, 2, 42, 30, 29, 16, 46, 37, 39, 40, 38, 48, 24, 5, 15, 6, 4, 25, 12, 28, 27, 26, 47, 13, 14, 52, 11, 51, 33, 43, 10, 9, 8, 41, 19, 45, 3, 18, 31, 22, 1, 32
